100
128
13
11
12
25
46
20
13
11
13
23
11
22
29
8
29
15
10
8
14
3
46
3
12
7
36
23
1
6
18
62
1
17
48
6
9
6
20
8
11
10
22
13
20
20
54
5
23
47
46
14
38
21
32
36
18
22
19
32
30
11
8
28
10
10
50
11
51
18
47
37
26
16
14
60
41
13
18
47
63
5
47
59
21
36
53
48
38
64
63
40
57
54
39
62
55
6
64
64
11
11